true true true
presolving:
presolving (0 rounds: 0 fast, 0 medium, 0 exhaustive):
 0 deleted vars, 0 deleted constraints, 0 added constraints, 0 tightened bounds, 0 added holes, 0 changed sides, 0 changed coefficients
 0 implications, 0 cliques
presolved problem has 55 variables (55 bin, 0 int, 0 impl, 0 cont) and 48 constraints
     48 constraints of type <linear>
transformed objective value is always integral (scale: 1)
Presolving Time: 0.00

 time | node  | left  |LP iter|LP it/n|mem/heur|mdpt |vars |cons |rows |cuts |sepa|confs|strbr|  dualbound   | primalbound  |  gap   | compl. 
p 0.0s|     1 |     0 |     0 |     - |shiftand|   0 |  55 |  48 |  48 |   0 |  0 |   0 |   0 |      --      | 7.000000e+00 |    Inf | unknown
 time | node  | left  |LP iter|LP it/n|mem/heur|mdpt |vars |cons |rows |cuts |sepa|confs|strbr|  dualbound   | primalbound  |  gap   | compl. 
  0.1s|     1 |     0 |    32 |     - |  3449k |   0 | 857 |  48 |  48 |   0 |  0 |   0 |   0 | 1.000000e+00 | 7.000000e+00 | 600.00%| unknown
 time | node  | left  |LP iter|LP it/n|mem/heur|mdpt |vars |cons |rows |cuts |sepa|confs|strbr|  dualbound   | primalbound  |  gap   | compl. 
 2607s|     1 |     0 |  1042 |     - |    16M |   0 |4680 |  48 |  48 |   0 |  0 |   0 |   0 | 6.000000e+00 | 7.000000e+00 |  16.67%| unknown
 time | node  | left  |LP iter|LP it/n|mem/heur|mdpt |vars |cons |rows |cuts |sepa|confs|strbr|  dualbound   | primalbound  |  gap   | compl. 
 2608s|     1 |     2 |  1964 |     - |    17M |   0 |4680 |  48 |  48 |   0 |  1 |   0 |   0 | 6.000000e+00 | 7.000000e+00 |  16.67%| unknown
 time | node  | left  |LP iter|LP it/n|mem/heur|mdpt |vars |cons |rows |cuts |sepa|confs|strbr|  dualbound   | primalbound  |  gap   | compl. 
 2608s|     2 |     3 |  1987 |  23.0 |    17M |   1 |4680 |  48 |  48 |   0 |  1 |   0 |   0 | 6.000000e+00 | 7.000000e+00 |  16.67%| unknown
 time | node  | left  |LP iter|LP it/n|mem/heur|mdpt |vars |cons |rows |cuts |sepa|confs|strbr|  dualbound   | primalbound  |  gap   | compl. 
 2608s|     3 |     4 |  2012 |  24.0 |    19M |   1 |4680 |  48 |  48 |   0 |  1 |   0 |   0 | 6.000000e+00 | 7.000000e+00 |  16.67%| unknown
 time | node  | left  |LP iter|LP it/n|mem/heur|mdpt |vars |cons |rows |cuts |sepa|confs|strbr|  dualbound   | primalbound  |  gap   | compl. 
 2608s|     4 |     5 |  2047 |  27.7 |    19M |   2 |4680 |  48 |  48 |   0 |  1 |   0 |   0 | 6.000000e+00 | 7.000000e+00 |  16.67%| unknown
 time | node  | left  |LP iter|LP it/n|mem/heur|mdpt |vars |cons |rows |cuts |sepa|confs|strbr|  dualbound   | primalbound  |  gap   | compl. 
 2608s|     5 |     6 |  2075 |  27.8 |    19M |   2 |4680 |  48 |  48 |   0 |  1 |   0 |   0 | 6.000000e+00 | 7.000000e+00 |  16.67%| unknown
 time | node  | left  |LP iter|LP it/n|mem/heur|mdpt |vars |cons |rows |cuts |sepa|confs|strbr|  dualbound   | primalbound  |  gap   | compl. 
 2609s|     6 |     7 |  2091 |  25.4 |    19M |   3 |4680 |  48 |  48 |   0 |  1 |   0 |   0 | 6.000000e+00 | 7.000000e+00 |  16.67%| unknown
 time | node  | left  |LP iter|LP it/n|mem/heur|mdpt |vars |cons |rows |cuts |sepa|confs|strbr|  dualbound   | primalbound  |  gap   | compl. 
 2609s|     7 |     8 |  2126 |  27.0 |    19M |   4 |4680 |  48 |  48 |   0 |  1 |   0 |   0 | 6.000000e+00 | 7.000000e+00 |  16.67%| unknown
 time | node  | left  |LP iter|LP it/n|mem/heur|mdpt |vars |cons |rows |cuts |sepa|confs|strbr|  dualbound   | primalbound  |  gap   | compl. 
 2609s|     8 |     9 |  3053 | 155.6 |    20M |   4 |4680 |  48 |  48 |   0 |  1 |   0 |   0 | 6.000000e+00 | 7.000000e+00 |  16.67%| unknown
 time | node  | left  |LP iter|LP it/n|mem/heur|mdpt |vars |cons |rows |cuts |sepa|confs|strbr|  dualbound   | primalbound  |  gap   | compl. 
 2610s|     9 |    10 |  3091 | 140.9 |    20M |   4 |4680 |  48 |  48 |   0 |  1 |   0 |   0 | 6.000000e+00 | 7.000000e+00 |  16.67%| unknown
 time | node  | left  |LP iter|LP it/n|mem/heur|mdpt |vars |cons |rows |cuts |sepa|confs|strbr|  dualbound   | primalbound  |  gap   | compl. 
 2610s|    10 |    11 |  3160 | 132.9 |    20M |   4 |4680 |  48 |  48 |   0 |  1 |   0 |   0 | 6.000000e+00 | 7.000000e+00 |  16.67%| unknown
 time | node  | left  |LP iter|LP it/n|mem/heur|mdpt |vars |cons |rows |cuts |sepa|confs|strbr|  dualbound   | primalbound  |  gap   | compl. 
 2610s|    11 |    12 |  3281 | 131.7 |    20M |   5 |4680 |  48 |  48 |   0 |  1 |   0 |   0 | 6.000000e+00 | 7.000000e+00 |  16.67%| unknown
 time | node  | left  |LP iter|LP it/n|mem/heur|mdpt |vars |cons |rows |cuts |sepa|confs|strbr|  dualbound   | primalbound  |  gap   | compl. 
 2611s|    12 |    13 |  3320 | 123.3 |    20M |   5 |4680 |  48 |  48 |   0 |  1 |   0 |   0 | 6.000000e+00 | 7.000000e+00 |  16.67%| unknown
 time | node  | left  |LP iter|LP it/n|mem/heur|mdpt |vars |cons |rows |cuts |sepa|confs|strbr|  dualbound   | primalbound  |  gap   | compl. 
 2611s|    13 |    14 |  3332 | 114.0 |    20M |   5 |4680 |  48 |  48 |   0 |  1 |   0 |   0 | 6.000000e+00 | 7.000000e+00 |  16.67%| unknown
 time | node  | left  |LP iter|LP it/n|mem/heur|mdpt |vars |cons |rows |cuts |sepa|confs|strbr|  dualbound   | primalbound  |  gap   | compl. 
 2612s|    14 |    15 |  3628 | 128.0 |    23M |   5 |5360 |  48 |  48 |   0 |  1 |   0 |   0 | 6.000000e+00 | 7.000000e+00 |  16.67%| unknown
 time | node  | left  |LP iter|LP it/n|mem/heur|mdpt |vars |cons |rows |cuts |sepa|confs|strbr|  dualbound   | primalbound  |  gap   | compl. 
 2613s|    15 |    16 |  3641 | 119.8 |    23M |   6 |5360 |  48 |  48 |   0 |  1 |   0 |   0 | 6.000000e+00 | 7.000000e+00 |  16.67%| unknown
 time | node  | left  |LP iter|LP it/n|mem/heur|mdpt |vars |cons |rows |cuts |sepa|confs|strbr|  dualbound   | primalbound  |  gap   | compl. 
 2613s|    16 |    15 |  3677 | 114.2 |    23M |   6 |5362 |  48 |  48 |   0 |  0 |   0 |   0 | 6.000000e+00 | 7.000000e+00 |  16.67%| unknown
 time | node  | left  |LP iter|LP it/n|mem/heur|mdpt |vars |cons |rows |cuts |sepa|confs|strbr|  dualbound   | primalbound  |  gap   | compl. 
r2614s|    17 |     0 |  3687 | 107.7 |simplero|   7 |5362 |  48 |  48 |   0 |  0 |   0 |   0 | 6.000000e+00 | 6.000000e+00 |   0.00%|  99.71%

SCIP Status        : problem is solved [optimal solution found]
Solving Time (sec) : 2613.86
Solving Nodes      : 17
Primal Bound       : +6.00000000000000e+00 (2 solutions)
Dual Bound         : +6.00000000000000e+00
Gap                : 0.00 %
Running with parallel: True bidir: True symbreak: True
Number of Nodes:  48
48.891420717592595% holds
starting cheapest insertion heuristic
Heuristic without TSP improvement:  7
Heuristic without TSP improvement time:  0.1
Heuristic Sol:  7
Heuristic total time:  0.1
[[20, 36, 41, 17, 16, 25, 18, 10, 22, 2], [31, 28, 7, 1, 29, 23], [33, 42, 4, 40, 3], [43, 6, 13, 11, 34], [44, 38, 35, 32, 27, 15, 30, 14], [47, 46, 26, 19, 39], [45, 8, 12, 9, 37, 5, 21, 0, 24]]
Instance path:  /home/htc/mghannam/SCRATCH/lccp-rust/data/t62_hk48.npcc
Timelimit:  7200
Heuristic without TSP improvement:  7
Heuristic without TSP improvement time:  0.1
Heuristic Sol:  7
Heuristic total time:  0.4
at 1 zero_duals: 41
at1, LP obj: 7.0 n_added_paths: 802
at 1 zero_duals: 27
at1, LP obj: 7.0 n_added_paths: 469
at 1 zero_duals: 19
at1, LP obj: 7.0 n_added_paths: 572
at 1 zero_duals: 12
at1, LP obj: 7.0 n_added_paths: 530
at 1 zero_duals: 10
at1, LP obj: 6.907550077041602 n_added_paths: 616
at 1 zero_duals: 7
at1, LP obj: 6.501754385964912 n_added_paths: 534
at 1 zero_duals: 11
at1, LP obj: 6.065918653576437 n_added_paths: 340
at 1 zero_duals: 5
at1, LP obj: 5.98388696083292 n_added_paths: 291
at 1 zero_duals: 6
at1, LP obj: 5.869650762420069 n_added_paths: 111
at 1 zero_duals: 2
at1, LP obj: 5.824884792626728 n_added_paths: 77
at 1 zero_duals: 6
Switching to elementary pricing
at1, LP obj: 5.791666666666667 n_added_paths: 100
updated lowerbound from 1.0 to 5
at 1 zero_duals: 6
Switching to elementary pricing
at1, LP obj: 5.74083129584352 n_added_paths: 121
at 1 zero_duals: 3
at1, LP obj: 5.70042194092827 n_added_paths: 21
at 1 zero_duals: 3
Switching to elementary pricing
at1, LP obj: 5.694560669456067 n_added_paths: 41
updated lowerbound from 5.0 to 6
Gap too small = 0, stopping pricing with lb = 6
Gap too small = 0, stopping pricing with lb = 6
Gap too small = 0, stopping pricing with lb = 6
Gap too small = 0, stopping pricing with lb = 6
Gap too small = 0, stopping pricing with lb = 6
Gap too small = 0, stopping pricing with lb = 6
Gap too small = 0, stopping pricing with lb = 6
Gap too small = 0, stopping pricing with lb = 6
Gap too small = 0, stopping pricing with lb = 6
Gap too small = 0, stopping pricing with lb = 6
Gap too small = 0, stopping pricing with lb = 6
Gap too small = 0, stopping pricing with lb = 6
Gap too small = 0, stopping pricing with lb = 6
at 25 zero_duals: 27
at25, LP obj: 6.3561643835616435 n_added_paths: 449
at 25 zero_duals: 12
at25, LP obj: 6.0681818181818175 n_added_paths: 231
Gap too small = 0, stopping pricing with lb = 6
Gap too small = 0, stopping pricing with lb = 6
at 29 zero_duals: 46
Switching to elementary pricing
at29, LP obj: 1e+20 n_added_paths: 2
updated lowerbound from 6.0 to 100000000000000000000
at 29 zero_duals: 46
Switching to elementary pricing
at29, LP obj: 1e+20 n_added_paths: 0
updated lowerbound from 6.0 to 100000000000000000000
Gap too small = 0, stopping pricing with lb = 6
Best solution found:
[43, 34, 13, 4, 11, 40, 42, 43] 1.0 1.0
checking cycle [43, 34, 13, 4, 11, 40, 42, 43]
[43, 34, 13, 4, 11, 40, 42, 43] 2258 2177
[33, 3, 29, 28, 31, 23, 33] 1.0 1.0
checking cycle [33, 3, 29, 28, 31, 23, 33]
[33, 3, 29, 28, 31, 23, 33] 3206 2657
[25, 18, 1, 7, 10, 22, 2, 6, 19, 20, 25] 1.0 1.0
checking cycle [25, 18, 1, 7, 10, 22, 2, 6, 19, 20, 25]
[25, 18, 1, 7, 10, 22, 2, 6, 19, 20, 25] 3589 3013
[45, 21, 5, 37, 9, 12, 8, 35, 0, 24, 45] 1.0 1.0
checking cycle [45, 21, 5, 37, 9, 12, 8, 35, 0, 24, 45]
[45, 21, 5, 37, 9, 12, 8, 35, 0, 24, 45] 2037 2006
[44, 14, 30, 41, 16, 17, 27, 32, 38, 44] 1.0 1.0
checking cycle [44, 14, 30, 41, 16, 17, 27, 32, 38, 44]
[44, 14, 30, 41, 16, 17, 27, 32, 38, 44] 2191 2180
[47, 46, 26, 39, 36, 15, 47] 1.0 1.0
checking cycle [47, 46, 26, 39, 36, 15, 47]
[47, 46, 26, 39, 36, 15, 47] 1916 1756
